c CNF file generated from BLIF2CNF script.
c Original BLIF file was blif/misg.blif
p cnf 154 353
1 -10 0
2 -10 0
10 -1 -2  0
-10 9 0
3 -11 0
4 -11 0
11 -3 -4  0
-11 9 0
5 -12 0
6 -12 0
12 -5 -6  0
-12 9 0
7 -13 0
8 -13 0
13 -7 -8  0
-13 9 0
-9 10 11 12 13  0
-14 -16 0
16 14  0
-16 15 0
-15 16  0
-17 -22 0
22 17  0
-22 21 0
18 -23 0
23 -18  0
-23 21 0
19 -24 0
20 -24 0
24 -19 -20  0
-24 21 0
-21 22 23 24  0
-25 -28 0
28 25  0
-28 27 0
-26 -29 0
29 26  0
-29 27 0
-27 28 29  0
-30 -32 0
32 30  0
-32 31 0
-31 32  0
-33 -35 0
35 33  0
-35 34 0
-34 35  0
-36 -38 0
38 36  0
-38 37 0
-37 38  0
-39 -41 0
41 39  0
-41 40 0
-40 41  0
18 -46 0
46 -18  0
-46 45 0
-42 -47 0
47 42  0
-47 45 0
-43 -48 0
48 43  0
-48 45 0
-44 -49 0
49 44  0
-49 45 0
-45 46 47 48 49  0
-50 -53 0
53 50  0
-53 52 0
-51 -54 0
54 51  0
-54 52 0
-52 53 54  0
55 -59 0
56 -59 0
57 -59 0
59 -55 -56 -57  0
-59 58 0
-58 59  0
-60 -63 0
63 60  0
-63 62 0
-61 -64 0
64 61  0
-64 62 0
-62 63 64  0
36 -68 0
68 -36  0
-68 67 0
65 -69 0
69 -65  0
-69 67 0
-66 -70 0
70 66  0
-70 67 0
-67 68 69 70  0
65 -73 0
73 -65  0
-73 72 0
-71 -74 0
74 71  0
-74 72 0
-72 73 74  0
65 -77 0
77 -65  0
-77 76 0
44 -78 0
-75 -78 0
78 -44 75  0
-78 76 0
-76 77 78  0
79 -82 0
82 -79  0
-82 81 0
80 -83 0
83 -80  0
-83 81 0
-81 82 83  0
-84 -86 0
86 84  0
-86 85 0
-85 86  0
-87 -89 0
89 87  0
-89 88 0
-88 89  0
-90 -93 0
93 90  0
-93 92 0
-91 -94 0
94 91  0
-94 92 0
-92 93 94  0
-96 -99 0
99 96  0
-99 98 0
57 -100 0
95 -100 0
97 -100 0
100 -57 -95 -97  0
-100 98 0
-98 99 100  0
-101 -115 0
115 101  0
-115 114 0
-112 -116 0
116 112  0
-116 114 0
-44 -117 0
117 44  0
-117 114 0
-102 -118 0
-113 -118 0
118 102 113  0
-118 114 0
-113 -119 0
-97 -119 0
119 113 97  0
-119 114 0
-104 -120 0
-106 -120 0
-108 -120 0
120 104 106 108  0
-120 114 0
-102 -121 0
-106 -121 0
-108 -121 0
-109 -121 0
121 102 106 108 109  0
-121 114 0
-103 -122 0
-106 -122 0
-108 -122 0
-109 -122 0
122 103 106 108 109  0
-122 114 0
-102 -123 0
-104 -123 0
-108 -123 0
-110 -123 0
123 102 104 108 110  0
-123 114 0
-104 -124 0
-105 -124 0
-108 -124 0
-110 -124 0
124 104 105 108 110  0
-124 114 0
-102 -125 0
-108 -125 0
-109 -125 0
-110 -125 0
125 102 108 109 110  0
-125 114 0
-102 -126 0
-104 -126 0
-106 -126 0
-111 -126 0
126 102 104 106 111  0
-126 114 0
-104 -127 0
-106 -127 0
-107 -127 0
-111 -127 0
127 104 106 107 111  0
-127 114 0
-102 -128 0
-106 -128 0
-109 -128 0
-111 -128 0
128 102 106 109 111  0
-128 114 0
-102 -129 0
-104 -129 0
-110 -129 0
-111 -129 0
129 102 104 110 111  0
-129 114 0
-102 -130 0
-109 -130 0
-110 -130 0
-111 -130 0
130 102 109 110 111  0
-130 114 0
-103 -131 0
-105 -131 0
-107 -131 0
-113 -131 0
131 103 105 107 113  0
-131 114 0
-104 -132 0
-105 -132 0
-107 -132 0
-113 -132 0
132 104 105 107 113  0
-132 114 0
-103 -133 0
-106 -133 0
-107 -133 0
-113 -133 0
133 103 106 107 113  0
-133 114 0
-104 -134 0
-106 -134 0
-107 -134 0
-113 -134 0
134 104 106 107 113  0
-134 114 0
-103 -135 0
-105 -135 0
-108 -135 0
-113 -135 0
135 103 105 108 113  0
-135 114 0
-104 -136 0
-105 -136 0
-108 -136 0
-113 -136 0
136 104 105 108 113  0
-136 114 0
-103 -137 0
-106 -137 0
-108 -137 0
-113 -137 0
137 103 106 108 113  0
-137 114 0
-106 -138 0
-108 -138 0
-109 -138 0
-97 -138 0
138 106 108 109 97  0
-138 114 0
-104 -139 0
-108 -139 0
-110 -139 0
-97 -139 0
139 104 108 110 97  0
-139 114 0
-108 -140 0
-109 -140 0
-110 -140 0
-97 -140 0
140 108 109 110 97  0
-140 114 0
-104 -141 0
-106 -141 0
-111 -141 0
-97 -141 0
141 104 106 111 97  0
-141 114 0
-106 -142 0
-109 -142 0
-111 -142 0
-97 -142 0
142 106 109 111 97  0
-142 114 0
-104 -143 0
-110 -143 0
-111 -143 0
-97 -143 0
143 104 110 111 97  0
-143 114 0
-109 -144 0
-110 -144 0
-111 -144 0
-97 -144 0
144 109 110 111 97  0
-144 114 0
-103 -145 0
-105 -145 0
-108 -145 0
-109 -145 0
-110 -145 0
145 103 105 108 109 110  0
-145 114 0
-103 -146 0
-106 -146 0
-107 -146 0
-109 -146 0
-111 -146 0
146 103 106 107 109 111  0
-146 114 0
-104 -147 0
-105 -147 0
-107 -147 0
-110 -147 0
-111 -147 0
147 104 105 107 110 111  0
-147 114 0
-103 -148 0
-105 -148 0
-107 -148 0
-109 -148 0
-110 -148 0
-111 -148 0
148 103 105 107 109 110 111  0
-148 114 0
-114 115 116 117 118 119 120 121 122 123 124 125 126 127 128 129 130 131 132 133 134 135 136 137 138 139 140 141 142 143 144 145 146 147 148  0
-149 -151 0
151 149  0
-151 150 0
-150 151  0
-101 -153 0
153 101  0
-153 152 0
57 -154 0
95 -154 0
97 -154 0
154 -57 -95 -97  0
-154 152 0
-152 153 154  0
